p cnf 175 3297
1 2 3 4 5 0
6 7 8 9 10 0
11 12 13 14 15 0
16 17 18 19 20 0
21 22 23 24 25 0
26 27 28 29 30 0
31 32 33 34 35 0
36 37 38 39 40 0
41 42 43 44 45 0
46 47 48 49 50 0
51 52 53 54 55 0
56 57 58 59 60 0
61 62 63 64 65 0
66 67 68 69 70 0
71 72 73 74 75 0
76 77 78 79 80 0
81 82 83 84 85 0
86 87 88 89 90 0
91 92 93 94 95 0
96 97 98 99 100 0
101 102 103 104 105 0
106 107 108 109 110 0
111 112 113 114 115 0
116 117 118 119 120 0
121 122 123 124 125 0
126 127 128 129 130 0
131 132 133 134 135 0
136 137 138 139 140 0
141 142 143 144 145 0
146 147 148 149 150 0
151 152 153 154 155 0
156 157 158 159 160 0
161 162 163 164 165 0
166 167 168 169 170 0
171 172 173 174 175 0
-1 -2 0
-1 -3 0
-1 -4 0
-1 -5 0
-2 -3 0
-2 -4 0
-2 -5 0
-3 -4 0
-3 -5 0
-4 -5 0
-6 -7 0
-6 -8 0
-6 -9 0
-6 -10 0
-7 -8 0
-7 -9 0
-7 -10 0
-8 -9 0
-8 -10 0
-9 -10 0
-11 -12 0
-11 -13 0
-11 -14 0
-11 -15 0
-12 -13 0
-12 -14 0
-12 -15 0
-13 -14 0
-13 -15 0
-14 -15 0
-16 -17 0
-16 -18 0
-16 -19 0
-16 -20 0
-17 -18 0
-17 -19 0
-17 -20 0
-18 -19 0
-18 -20 0
-19 -20 0
-21 -22 0
-21 -23 0
-21 -24 0
-21 -25 0
-22 -23 0
-22 -24 0
-22 -25 0
-23 -24 0
-23 -25 0
-24 -25 0
-26 -27 0
-26 -28 0
-26 -29 0
-26 -30 0
-27 -28 0
-27 -29 0
-27 -30 0
-28 -29 0
-28 -30 0
-29 -30 0
-31 -32 0
-31 -33 0
-31 -34 0
-31 -35 0
-32 -33 0
-32 -34 0
-32 -35 0
-33 -34 0
-33 -35 0
-34 -35 0
-36 -37 0
-36 -38 0
-36 -39 0
-36 -40 0
-37 -38 0
-37 -39 0
-37 -40 0
-38 -39 0
-38 -40 0
-39 -40 0
-41 -42 0
-41 -43 0
-41 -44 0
-41 -45 0
-42 -43 0
-42 -44 0
-42 -45 0
-43 -44 0
-43 -45 0
-44 -45 0
-46 -47 0
-46 -48 0
-46 -49 0
-46 -50 0
-47 -48 0
-47 -49 0
-47 -50 0
-48 -49 0
-48 -50 0
-49 -50 0
-51 -52 0
-51 -53 0
-51 -54 0
-51 -55 0
-52 -53 0
-52 -54 0
-52 -55 0
-53 -54 0
-53 -55 0
-54 -55 0
-56 -57 0
-56 -58 0
-56 -59 0
-56 -60 0
-57 -58 0
-57 -59 0
-57 -60 0
-58 -59 0
-58 -60 0
-59 -60 0
-61 -62 0
-61 -63 0
-61 -64 0
-61 -65 0
-62 -63 0
-62 -64 0
-62 -65 0
-63 -64 0
-63 -65 0
-64 -65 0
-66 -67 0
-66 -68 0
-66 -69 0
-66 -70 0
-67 -68 0
-67 -69 0
-67 -70 0
-68 -69 0
-68 -70 0
-69 -70 0
-71 -72 0
-71 -73 0
-71 -74 0
-71 -75 0
-72 -73 0
-72 -74 0
-72 -75 0
-73 -74 0
-73 -75 0
-74 -75 0
-76 -77 0
-76 -78 0
-76 -79 0
-76 -80 0
-77 -78 0
-77 -79 0
-77 -80 0
-78 -79 0
-78 -80 0
-79 -80 0
-81 -82 0
-81 -83 0
-81 -84 0
-81 -85 0
-82 -83 0
-82 -84 0
-82 -85 0
-83 -84 0
-83 -85 0
-84 -85 0
-86 -87 0
-86 -88 0
-86 -89 0
-86 -90 0
-87 -88 0
-87 -89 0
-87 -90 0
-88 -89 0
-88 -90 0
-89 -90 0
-91 -92 0
-91 -93 0
-91 -94 0
-91 -95 0
-92 -93 0
-92 -94 0
-92 -95 0
-93 -94 0
-93 -95 0
-94 -95 0
-96 -97 0
-96 -98 0
-96 -99 0
-96 -100 0
-97 -98 0
-97 -99 0
-97 -100 0
-98 -99 0
-98 -100 0
-99 -100 0
-101 -102 0
-101 -103 0
-101 -104 0
-101 -105 0
-102 -103 0
-102 -104 0
-102 -105 0
-103 -104 0
-103 -105 0
-104 -105 0
-106 -107 0
-106 -108 0
-106 -109 0
-106 -110 0
-107 -108 0
-107 -109 0
-107 -110 0
-108 -109 0
-108 -110 0
-109 -110 0
-111 -112 0
-111 -113 0
-111 -114 0
-111 -115 0
-112 -113 0
-112 -114 0
-112 -115 0
-113 -114 0
-113 -115 0
-114 -115 0
-116 -117 0
-116 -118 0
-116 -119 0
-116 -120 0
-117 -118 0
-117 -119 0
-117 -120 0
-118 -119 0
-118 -120 0
-119 -120 0
-121 -122 0
-121 -123 0
-121 -124 0
-121 -125 0
-122 -123 0
-122 -124 0
-122 -125 0
-123 -124 0
-123 -125 0
-124 -125 0
-126 -127 0
-126 -128 0
-126 -129 0
-126 -130 0
-127 -128 0
-127 -129 0
-127 -130 0
-128 -129 0
-128 -130 0
-129 -130 0
-131 -132 0
-131 -133 0
-131 -134 0
-131 -135 0
-132 -133 0
-132 -134 0
-132 -135 0
-133 -134 0
-133 -135 0
-134 -135 0
-136 -137 0
-136 -138 0
-136 -139 0
-136 -140 0
-137 -138 0
-137 -139 0
-137 -140 0
-138 -139 0
-138 -140 0
-139 -140 0
-141 -142 0
-141 -143 0
-141 -144 0
-141 -145 0
-142 -143 0
-142 -144 0
-142 -145 0
-143 -144 0
-143 -145 0
-144 -145 0
-146 -147 0
-146 -148 0
-146 -149 0
-146 -150 0
-147 -148 0
-147 -149 0
-147 -150 0
-148 -149 0
-148 -150 0
-149 -150 0
-151 -152 0
-151 -153 0
-151 -154 0
-151 -155 0
-152 -153 0
-152 -154 0
-152 -155 0
-153 -154 0
-153 -155 0
-154 -155 0
-156 -157 0
-156 -158 0
-156 -159 0
-156 -160 0
-157 -158 0
-157 -159 0
-157 -160 0
-158 -159 0
-158 -160 0
-159 -160 0
-161 -162 0
-161 -163 0
-161 -164 0
-161 -165 0
-162 -163 0
-162 -164 0
-162 -165 0
-163 -164 0
-163 -165 0
-164 -165 0
-166 -167 0
-166 -168 0
-166 -169 0
-166 -170 0
-167 -168 0
-167 -169 0
-167 -170 0
-168 -169 0
-168 -170 0
-169 -170 0
-171 -172 0
-171 -173 0
-171 -174 0
-171 -175 0
-172 -173 0
-172 -174 0
-172 -175 0
-173 -174 0
-173 -175 0
-174 -175 0
-4 -12 0
-2 -12 0
-4 -13 0
-5 -13 0
-1 -13 0
-2 -13 0
-4 -14 0
-3 -22 0
-4 -21 0
-4 -22 0
-4 -24 0
-5 -24 0
-5 -21 0
-5 -22 0
-5 -28 0
-5 -30 0
-3 -29 0
-1 -27 0
-2 -28 0
-5 -27 0
-4 -28 0
-3 -37 0
-3 -39 0
-1 -38 0
-3 -40 0
-2 -38 0
-2 -39 0
-4 -40 0
-5 -44 0
-1 -45 0
-1 -42 0
-3 -44 0
-2 -45 0
-2 -41 0
-3 -41 0
-2 -59 0
-5 -56 0
-5 -57 0
-5 -60 0
-2 -60 0
-2 -58 0
-3 -60 0
-4 -69 0
-1 -66 0
-2 -68 0
-1 -69 0
-4 -68 0
-1 -70 0
-3 -69 0
-3 -71 0
-5 -75 0
-2 -75 0
-3 -73 0
-4 -75 0
-5 -74 0
-5 -71 0
-5 -81 0
-4 -83 0
-1 -83 0
-1 -85 0
-1 -84 0
-2 -81 0
-3 -82 0
-4 -96 0
-2 -96 0
-3 -100 0
-2 -98 0
-5 -100 0
-2 -100 0
-5 -99 0
-4 -105 0
-1 -101 0
-5 -104 0
-3 -101 0
-2 -103 0
-1 -104 0
-3 -105 0
-1 -108 0
-3 -108 0
-4 -109 0
-5 -108 0
-2 -108 0
-4 -110 0
-3 -107 0
-3 -114 0
-1 -111 0
-5 -115 0
-5 -112 0
-4 -112 0
-1 -112 0
-3 -113 0
-5 -118 0
-3 -116 0
-2 -118 0
-3 -117 0
-1 -119 0
-4 -119 0
-1 -116 0
-4 -121 0
-5 -123 0
-4 -122 0
-4 -124 0
-2 -122 0
-5 -122 0
-3 -123 0
-3 -139 0
-1 -137 0
-2 -140 0
-4 -136 0
-4 -137 0
-3 -140 0
-1 -136 0
-5 -149 0
-3 -150 0
-2 -149 0
-4 -148 0
-2 -150 0
-3 -149 0
-4 -149 0
-2 -156 0
-4 -160 0
-2 -157 0
-4 -159 0
-5 -156 0
-2 -158 0
-2 -159 0
-9 -12 0
-6 -13 0
-9 -11 0
-10 -15 0
-9 -14 0
-7 -14 0
-6 -15 0
-7 -16 0
-9 -17 0
-8 -16 0
-10 -18 0
-8 -17 0
-7 -19 0
-6 -20 0
-8 -23 0
-9 -22 0
-10 -25 0
-7 -22 0
-8 -22 0
-6 -22 0
-7 -21 0
-6 -28 0
-6 -26 0
-9 -30 0
-7 -29 0
-8 -28 0
-6 -27 0
-10 -30 0
-8 -33 0
-6 -32 0
-10 -31 0
-7 -32 0
-7 -34 0
-7 -31 0
-10 -32 0
-10 -39 0
-10 -36 0
-8 -39 0
-8 -36 0
-9 -36 0
-8 -40 0
-7 -39 0
-8 -53 0
-7 -53 0
-6 -54 0
-9 -55 0
-7 -51 0
-6 -55 0
-9 -51 0
-6 -68 0
-6 -67 0
-8 -67 0
-8 -70 0
-6 -70 0
-10 -66 0
-9 -68 0
-9 -85 0
-7 -83 0
-8 -85 0
-6 -85 0
-10 -81 0
-9 -83 0
-8 -81 0
-8 -86 0
-6 -86 0
-10 -86 0
-6 -89 0
-10 -88 0
-7 -90 0
-8 -90 0
-7 -92 0
-6 -94 0
-7 -93 0
-8 -91 0
-8 -93 0
-7 -91 0
-6 -95 0
-9 -97 0
-10 -96 0
-8 -97 0
-10 -100 0
-6 -98 0
-6 -97 0
-7 -96 0
-7 -105 0
-9 -105 0
-7 -101 0
-7 -102 0
-6 -102 0
-10 -103 0
-6 -104 0
-9 -112 0
-8 -114 0
-9 -111 0
-10 -114 0
-8 -112 0
-9 -113 0
-8 -113 0
-7 -121 0
-7 -124 0
-6 -124 0
-10 -125 0
-10 -121 0
-10 -122 0
-6 -122 0
-7 -130 0
-9 -126 0
-7 -127 0
-8 -128 0
-9 -127 0
-9 -129 0
-6 -130 0
-7 -133 0
-10 -133 0
-6 -132 0
-8 -135 0
-8 -134 0
-8 -133 0
-7 -134 0
-10 -137 0
-10 -139 0
-8 -140 0
-8 -136 0
-8 -137 0
-6 -136 0
-8 -139 0
-9 -144 0
-6 -141 0
-6 -142 0
-7 -143 0
-9 -142 0
-10 -145 0
-10 -144 0
-7 -146 0
-6 -146 0
-7 -150 0
-6 -148 0
-10 -146 0
-8 -146 0
-6 -150 0
-8 -152 0
-6 -155 0
-9 -153 0
-7 -153 0
-7 -152 0
-8 -154 0
-10 -152 0
-7 -158 0
-9 -156 0
-8 -160 0
-8 -157 0
-9 -157 0
-7 -157 0
-10 -157 0
-7 -161 0
-7 -163 0
-9 -161 0
-10 -161 0
-8 -164 0
-6 -165 0
-10 -164 0
-8 -169 0
-8 -167 0
-10 -166 0
-6 -166 0
-9 -168 0
-10 -168 0
-7 -168 0
-14 -22 0
-14 -25 0
-15 -21 0
-15 -24 0
-12 -21 0
-11 -23 0
-13 -22 0
-13 -29 0
-15 -28 0
-14 -30 0
-11 -28 0
-12 -28 0
-14 -29 0
-11 -26 0
-12 -32 0
-14 -31 0
-14 -32 0
-12 -35 0
-11 -35 0
-15 -34 0
-13 -35 0
-12 -51 0
-12 -54 0
-15 -55 0
-14 -53 0
-11 -51 0
-13 -54 0
-14 -55 0
-12 -60 0
-14 -56 0
-11 -60 0
-14 -57 0
-15 -57 0
-15 -58 0
-13 -59 0
-13 -62 0
-14 -63 0
-15 -63 0
-13 -61 0
-13 -65 0
-15 -62 0
-13 -64 0
-13 -69 0
-13 -70 0
-13 -67 0
-11 -69 0
-11 -68 0
-12 -69 0
-15 -67 0
-13 -75 0
-15 -75 0
-13 -73 0
-11 -75 0
-15 -72 0
-11 -73 0
-11 -72 0
-11 -97 0
-13 -99 0
-12 -100 0
-15 -100 0
-13 -97 0
-12 -99 0
-15 -96 0
-15 -102 0
-11 -103 0
-12 -102 0
-12 -103 0
-14 -103 0
-14 -104 0
-15 -103 0
-11 -107 0
-13 -107 0
-15 -108 0
-12 -110 0
-11 -109 0
-15 -107 0
-14 -110 0
-14 -112 0
-15 -115 0
-14 -115 0
-13 -112 0
-13 -113 0
-12 -114 0
-11 -112 0
-14 -127 0
-13 -129 0
-13 -127 0
-12 -129 0
-13 -130 0
-12 -128 0
-15 -127 0
-11 -133 0
-12 -133 0
-12 -135 0
-15 -135 0
-13 -131 0
-14 -133 0
-13 -134 0
-13 -138 0
-11 -140 0
-12 -139 0
-12 -137 0
-12 -136 0
-13 -137 0
-14 -137 0
-12 -144 0
-11 -143 0
-15 -141 0
-11 -145 0
-13 -141 0
-11 -144 0
-14 -145 0
-15 -153 0
-13 -155 0
-14 -153 0
-14 -155 0
-12 -153 0
-11 -155 0
-15 -155 0
-12 -170 0
-12 -169 0
-13 -170 0
-15 -169 0
-12 -168 0
-14 -170 0
-11 -166 0
-14 -172 0
-14 -171 0
-15 -172 0
-15 -174 0
-12 -171 0
-11 -172 0
-11 -171 0
-16 -23 0
-17 -25 0
-18 -24 0
-16 -21 0
-16 -22 0
-20 -23 0
-17 -24 0
-20 -26 0
-20 -28 0
-19 -30 0
-20 -29 0
-18 -27 0
-19 -29 0
-18 -26 0
-19 -33 0
-17 -34 0
-18 -32 0
-16 -34 0
-17 -31 0
-20 -33 0
-17 -35 0
-18 -44 0
-16 -41 0
-19 -44 0
-16 -44 0
-20 -41 0
-19 -41 0
-18 -45 0
-19 -52 0
-17 -52 0
-16 -55 0
-20 -51 0
-20 -54 0
-16 -54 0
-18 -55 0
-16 -57 0
-18 -57 0
-18 -58 0
-16 -59 0
-19 -57 0
-19 -58 0
-16 -56 0
-18 -70 0
-16 -68 0
-17 -68 0
-17 -70 0
-18 -69 0
-19 -67 0
-20 -67 0
-17 -72 0
-18 -75 0
-16 -71 0
-18 -74 0
-16 -73 0
-20 -75 0
-20 -71 0
-16 -90 0
-19 -89 0
-18 -88 0
-20 -86 0
-18 -90 0
-16 -87 0
-20 -88 0
-20 -94 0
-16 -91 0
-17 -91 0
-18 -92 0
-20 -91 0
-17 -92 0
-18 -95 0
-18 -96 0
-20 -99 0
-19 -100 0
-16 -100 0
-16 -96 0
-17 -97 0
-17 -98 0
-16 -105 0
-19 -104 0
-18 -105 0
-17 -103 0
-19 -102 0
-20 -104 0
-20 -105 0
-20 -115 0
-18 -113 0
-16 -113 0
-17 -113 0
-20 -111 0
-20 -113 0
-17 -111 0
-18 -119 0
-17 -117 0
-19 -116 0
-18 -117 0
-18 -116 0
-17 -120 0
-19 -119 0
-19 -123 0
-20 -123 0
-20 -124 0
-17 -125 0
-18 -125 0
-17 -123 0
-19 -125 0
-18 -131 0
-17 -132 0
-19 -135 0
-16 -134 0
-17 -133 0
-18 -135 0
-16 -135 0
-17 -140 0
-19 -140 0
-16 -136 0
-16 -137 0
-17 -138 0
-16 -139 0
-20 -137 0
-19 -143 0
-17 -142 0
-20 -143 0
-17 -141 0
-18 -143 0
-16 -141 0
-17 -143 0
-18 -146 0
-20 -148 0
-17 -148 0
-16 -148 0
-18 -148 0
-19 -147 0
-17 -147 0
-19 -155 0
-20 -152 0
-18 -155 0
-17 -155 0
-16 -151 0
-18 -151 0
-17 -153 0
-20 -160 0
-18 -159 0
-17 -158 0
-19 -158 0
-18 -160 0
-16 -158 0
-19 -156 0
-18 -170 0
-19 -170 0
-16 -168 0
-17 -169 0
-19 -167 0
-16 -167 0
-16 -166 0
-20 -172 0
-19 -175 0
-17 -171 0
-18 -174 0
-19 -171 0
-16 -172 0
-18 -173 0
-24 -27 0
-22 -28 0
-25 -26 0
-23 -30 0
-25 -28 0
-23 -29 0
-24 -29 0
-25 -38 0
-22 -38 0
-25 -37 0
-22 -40 0
-21 -38 0
-23 -38 0
-21 -39 0
-22 -50 0
-25 -49 0
-25 -47 0
-23 -49 0
-23 -47 0
-24 -49 0
-24 -47 0
-21 -58 0
-23 -59 0
-21 -60 0
-21 -57 0
-24 -58 0
-21 -59 0
-25 -57 0
-21 -63 0
-23 -65 0
-22 -62 0
-24 -64 0
-21 -65 0
-23 -61 0
-25 -61 0
-25 -66 0
-24 -68 0
-24 -69 0
-21 -66 0
-21 -69 0
-23 -67 0
-22 -67 0
-23 -74 0
-23 -72 0
-21 -71 0
-22 -74 0
-25 -72 0
-22 -75 0
-24 -75 0
-24 -77 0
-22 -76 0
-24 -76 0
-25 -78 0
-23 -79 0
-24 -80 0
-22 -77 0
-24 -83 0
-24 -84 0
-24 -82 0
-25 -82 0
-22 -84 0
-23 -82 0
-22 -82 0
-24 -95 0
-24 -91 0
-22 -94 0
-21 -91 0
-22 -93 0
-25 -94 0
-22 -95 0
-24 -100 0
-22 -97 0
-24 -96 0
-22 -100 0
-24 -97 0
-25 -98 0
-21 -97 0
-24 -105 0
-23 -102 0
-22 -103 0
-21 -105 0
-24 -101 0
-23 -105 0
-21 -101 0
-24 -111 0
-23 -113 0
-22 -111 0
-25 -115 0
-25 -113 0
-22 -114 0
-21 -111 0
-25 -120 0
-22 -120 0
-24 -118 0
-23 -117 0
-23 -119 0
-22 -119 0
-25 -118 0
-22 -135 0
-24 -131 0
-22 -132 0
-23 -131 0
-23 -133 0
-21 -134 0
-23 -132 0
-22 -147 0
-23 -150 0
-23 -148 0
-21 -146 0
-25 -148 0
-24 -148 0
-22 -150 0
-23 -154 0
-25 -151 0
-23 -155 0
-22 -153 0
-23 -151 0
-24 -153 0
-21 -152 0
-24 -158 0
-22 -159 0
-21 -159 0
-21 -157 0
-23 -159 0
-23 -160 0
-23 -156 0
-21 -169 0
-22 -169 0
-21 -170 0
-22 -167 0
-23 -168 0
-25 -166 0
-21 -167 0
-24 -172 0
-23 -173 0
-21 -175 0
-21 -173 0
-23 -171 0
-24 -171 0
-22 -175 0
-29 -36 0
-27 -38 0
-28 -40 0
-27 -37 0
-26 -40 0
-28 -38 0
-28 -37 0
-27 -47 0
-26 -46 0
-30 -46 0
-28 -49 0
-29 -47 0
-26 -49 0
-30 -50 0
-26 -54 0
-29 -55 0
-27 -52 0
-30 -51 0
-27 -51 0
-29 -53 0
-26 -52 0
-27 -58 0
-30 -56 0
-27 -59 0
-30 -60 0
-30 -57 0
-30 -59 0
-30 -58 0
-30 -61 0
-27 -62 0
-28 -61 0
-26 -64 0
-27 -61 0
-30 -65 0
-26 -62 0
-29 -70 0
-28 -67 0
-29 -68 0
-30 -68 0
-26 -69 0
-26 -70 0
-28 -68 0
-30 -77 0
-28 -77 0
-29 -80 0
-29 -77 0
-26 -77 0
-28 -76 0
-27 -77 0
-30 -90 0
-28 -90 0
-29 -86 0
-28 -88 0
-27 -88 0
-28 -89 0
-26 -86 0
-28 -93 0
-28 -94 0
-30 -91 0
-28 -95 0
-29 -91 0
-30 -94 0
-27 -92 0
-28 -99 0
-30 -99 0
-30 -96 0
-28 -100 0
-29 -100 0
-28 -96 0
-27 -99 0
-30 -102 0
-29 -102 0
-28 -105 0
-27 -103 0
-30 -105 0
-26 -104 0
-29 -101 0
-27 -120 0
-27 -117 0
-30 -120 0
-26 -117 0
-30 -119 0
-26 -119 0
-28 -120 0
-27 -124 0
-30 -121 0
-26 -125 0
-27 -123 0
-30 -124 0
-28 -121 0
-26 -123 0
-29 -129 0
-29 -130 0
-27 -126 0
-29 -126 0
-27 -127 0
-26 -128 0
-30 -127 0
-26 -131 0
-29 -132 0
-27 -131 0
-30 -133 0
-27 -134 0
-30 -134 0
-27 -135 0
-30 -136 0
-26 -137 0
-28 -137 0
-30 -140 0
-26 -139 0
-30 -138 0
-29 -137 0
-28 -143 0
-29 -142 0
-28 -141 0
-26 -142 0
-29 -144 0
-27 -141 0
-26 -144 0
-28 -151 0
-29 -151 0
-26 -151 0
-29 -153 0
-28 -155 0
-28 -152 0
-27 -151 0
-28 -160 0
-30 -157 0
-30 -160 0
-27 -159 0
-30 -159 0
-27 -160 0
-26 -157 0
-30 -164 0
-28 -163 0
-26 -162 0
-29 -161 0
-29 -164 0
-26 -165 0
-26 -164 0
-34 -36 0
-31 -38 0
-32 -39 0
-31 -36 0
-32 -37 0
-34 -39 0
-33 -37 0
-31 -43 0
-35 -45 0
-31 -41 0
-33 -42 0
-31 -44 0
-33 -45 0
-34 -41 0
-35 -52 0
-32 -55 0
-33 -54 0
-35 -51 0
-35 -55 0
-34 -51 0
-35 -54 0
-35 -65 0
-32 -64 0
-35 -64 0
-34 -62 0
-33 -62 0
-33 -64 0
-35 -62 0
-33 -66 0
-35 -66 0
-34 -68 0
-34 -70 0
-35 -70 0
-31 -70 0
-31 -66 0
-33 -74 0
-32 -73 0
-34 -72 0
-33 -71 0
-32 -75 0
-34 -73 0
-33 -75 0
-33 -84 0
-35 -84 0
-31 -82 0
-32 -82 0
-34 -82 0
-33 -81 0
-34 -83 0
-32 -89 0
-33 -89 0
-35 -87 0
-35 -90 0
-32 -86 0
-32 -88 0
-31 -87 0
-33 -91 0
-33 -93 0
-32 -91 0
-34 -93 0
-34 -92 0
-35 -91 0
-35 -93 0
-33 -99 0
-32 -97 0
-35 -97 0
-32 -98 0
-31 -98 0
-31 -99 0
-35 -98 0
-33 -109 0
-33 -106 0
-33 -110 0
-32 -107 0
-35 -109 0
-34 -106 0
-32 -110 0
-34 -111 0
-33 -111 0
-35 -115 0
-32 -115 0
-31 -114 0
-35 -113 0
-32 -113 0
-31 -127 0
-35 -130 0
-32 -127 0
-34 -130 0
-34 -127 0
-33 -127 0
-34 -128 0
-32 -135 0
-31 -132 0
-32 -131 0
-31 -134 0
-33 -134 0
-34 -131 0
-31 -131 0
-31 -137 0
-31 -139 0
-32 -139 0
-34 -139 0
-34 -136 0
-33 -138 0
-33 -139 0
-33 -143 0
-35 -141 0
-34 -141 0
-33 -142 0
-35 -142 0
-31 -145 0
-32 -143 0
-31 -147 0
-34 -149 0
-32 -149 0
-31 -150 0
-32 -148 0
-33 -147 0
-34 -150 0
-35 -151 0
-31 -155 0
-31 -154 0
-34 -155 0
-33 -152 0
-32 -151 0
-33 -155 0
-31 -157 0
-35 -157 0
-35 -160 0
-32 -157 0
-33 -156 0
-35 -156 0
-34 -160 0
-31 -165 0
-33 -165 0
-34 -163 0
-32 -161 0
-32 -163 0
-33 -164 0
-35 -162 0
-32 -167 0
-34 -169 0
-34 -168 0
-35 -169 0
-32 -169 0
-31 -170 0
-35 -168 0
-32 -175 0
-31 -173 0
-32 -174 0
-34 -172 0
-32 -172 0
-33 -171 0
-33 -175 0
-38 -45 0
-38 -41 0
-38 -43 0
-39 -42 0
-36 -42 0
-39 -43 0
-36 -41 0
-36 -48 0
-39 -50 0
-37 -49 0
-39 -48 0
-36 -49 0
-39 -49 0
-37 -46 0
-36 -53 0
-37 -53 0
-40 -53 0
-38 -55 0
-36 -52 0
-40 -54 0
-36 -54 0
-40 -65 0
-39 -61 0
-38 -64 0
-37 -63 0
-39 -64 0
-39 -62 0
-37 -65 0
-37 -66 0
-39 -67 0
-40 -66 0
-40 -68 0
-38 -70 0
-36 -67 0
-37 -69 0
-38 -73 0
-36 -72 0
-36 -75 0
-37 -73 0
-40 -72 0
-38 -71 0
-38 -74 0
-38 -80 0
-40 -78 0
-40 -79 0
-37 -76 0
-39 -80 0
-36 -79 0
-36 -80 0
-39 -84 0
-39 -82 0
-40 -82 0
-38 -84 0
-36 -82 0
-36 -83 0
-39 -81 0
-38 -92 0
-37 -92 0
-36 -91 0
-40 -94 0
-39 -94 0
-40 -93 0
-37 -95 0
-38 -96 0
-37 -96 0
-40 -96 0
-37 -100 0
-39 -100 0
-38 -97 0
-40 -97 0
-40 -104 0
-37 -103 0
-40 -101 0
-36 -102 0
-40 -103 0
-39 -102 0
-37 -102 0
-37 -106 0
-37 -108 0
-39 -108 0
-36 -106 0
-39 -109 0
-37 -109 0
-40 -110 0
-37 -116 0
-38 -118 0
-37 -120 0
-36 -117 0
-36 -119 0
-38 -120 0
-36 -118 0
-40 -129 0
-36 -126 0
-37 -128 0
-37 -127 0
-39 -128 0
-39 -129 0
-36 -128 0
-39 -132 0
-38 -135 0
-36 -135 0
-39 -135 0
-38 -134 0
-37 -131 0
-37 -133 0
-37 -146 0
-38 -148 0
-37 -150 0
-40 -146 0
-39 -148 0
-36 -148 0
-38 -147 0
-36 -151 0
-39 -154 0
-39 -152 0
-36 -155 0
-38 -154 0
-36 -152 0
-39 -153 0
-38 -159 0
-39 -159 0
-36 -157 0
-40 -157 0
-39 -156 0
-39 -157 0
-39 -158 0
-37 -161 0
-37 -163 0
-37 -165 0
-40 -165 0
-38 -161 0
-39 -163 0
-38 -165 0
-40 -167 0
-36 -170 0
-39 -166 0
-40 -170 0
-39 -170 0
-38 -169 0
-37 -169 0
-36 -171 0
-36 -175 0
-39 -171 0
-37 -173 0
-39 -173 0
-38 -173 0
-36 -172 0
-45 -46 0
-41 -48 0
-42 -46 0
-45 -50 0
-43 -48 0
-42 -47 0
-43 -47 0
-45 -54 0
-41 -52 0
-43 -53 0
-45 -52 0
-45 -53 0
-43 -54 0
-41 -53 0
-44 -57 0
-42 -57 0
-43 -59 0
-41 -56 0
-44 -60 0
-42 -59 0
-43 -60 0
-41 -63 0
-42 -62 0
-41 -65 0
-45 -63 0
-45 -61 0
-42 -65 0
-43 -65 0
-45 -73 0
-45 -71 0
-45 -74 0
-41 -75 0
-42 -75 0
-42 -74 0
-42 -71 0
-42 -76 0
-44 -76 0
-45 -76 0
-42 -79 0
-41 -76 0
-42 -78 0
-41 -77 0
-44 -93 0
-43 -95 0
-41 -95 0
-42 -91 0
-43 -94 0
-45 -94 0
-45 -95 0
-43 -106 0
-41 -110 0
-42 -108 0
-42 -110 0
-45 -106 0
-42 -106 0
-45 -109 0
-44 -111 0
-44 -115 0
-45 -114 0
-42 -111 0
-41 -115 0
-45 -112 0
-43 -113 0
-43 -118 0
-41 -116 0
-43 -117 0
-41 -120 0
-43 -116 0
-45 -118 0
-45 -120 0
-43 -122 0
-41 -125 0
-44 -125 0
-45 -121 0
-43 -125 0
-42 -123 0
-45 -123 0
-42 -134 0
-41 -134 0
-41 -132 0
-44 -134 0
-45 -133 0
-42 -133 0
-44 -135 0
-41 -142 0
-42 -144 0
-44 -141 0
-41 -143 0
-45 -145 0
-43 -141 0
-43 -143 0
-45 -150 0
-41 -148 0
-44 -147 0
-42 -148 0
-41 -147 0
-42 -147 0
-43 -149 0
-41 -156 0
-45 -160 0
-42 -158 0
-43 -157 0
-44 -160 0
-45 -157 0
-45 -158 0
-41 -163 0
-42 -162 0
-42 -161 0
-43 -165 0
-42 -165 0
-41 -161 0
-43 -161 0
-44 -169 0
-43 -166 0
-45 -167 0
-44 -168 0
-43 -168 0
-45 -166 0
-41 -167 0
-49 -51 0
-48 -53 0
-50 -53 0
-46 -55 0
-48 -54 0
-49 -53 0
-47 -51 0
-46 -56 0
-49 -60 0
-47 -59 0
-48 -60 0
-47 -60 0
-50 -60 0
-50 -57 0
-47 -61 0
-49 -62 0
-48 -61 0
-50 -65 0
-49 -63 0
-46 -64 0
-47 -63 0
-48 -78 0
-50 -78 0
-47 -80 0
-48 -79 0
-47 -78 0
-48 -80 0
-46 -79 0
-49 -83 0
-46 -84 0
-50 -84 0
-48 -83 0
-48 -81 0
-50 -81 0
-49 -81 0
-48 -102 0
-46 -103 0
-50 -105 0
-46 -101 0
-49 -102 0
-48 -104 0
-49 -104 0
-49 -107 0
-47 -106 0
-48 -107 0
-48 -110 0
-50 -109 0
-47 -107 0
-46 -109 0
-48 -113 0
-46 -113 0
-49 -114 0
-49 -112 0
-50 -111 0
-48 -112 0
-48 -111 0
-46 -124 0
-50 -122 0
-47 -124 0
-47 -121 0
-50 -123 0
-49 -123 0
-48 -125 0
-48 -128 0
-47 -130 0
-50 -128 0
-47 -126 0
-48 -127 0
-49 -129 0
-49 -130 0
-48 -131 0
-47 -131 0
-48 -135 0
-46 -131 0
-46 -135 0
-46 -132 0
-47 -134 0
-49 -136 0
-48 -136 0
-49 -140 0
-50 -140 0
-50 -136 0
-48 -137 0
-46 -140 0
-47 -145 0
-47 -141 0
-49 -141 0
-46 -142 0
-47 -143 0
-48 -144 0
-48 -142 0
-49 -160 0
-48 -159 0
-47 -159 0
-50 -156 0
-47 -160 0
-48 -157 0
-49 -158 0
-48 -165 0
-48 -164 0
-47 -164 0
-46 -164 0
-49 -161 0
-50 -164 0
-49 -165 0
-47 -168 0
-46 -166 0
-46 -170 0
-47 -169 0
-47 -166 0
-48 -168 0
-50 -169 0
-50 -172 0
-49 -172 0
-46 -171 0
-49 -174 0
-48 -172 0
-47 -175 0
-47 -173 0
-52 -65 0
-51 -61 0
-54 -64 0
-53 -62 0
-51 -63 0
-55 -65 0
-52 -62 0
-55 -74 0
-54 -71 0
-51 -72 0
-55 -72 0
-52 -74 0
-52 -72 0
-55 -71 0
-54 -85 0
-55 -84 0
-54 -83 0
-51 -83 0
-51 -82 0
-53 -84 0
-51 -81 0
-54 -88 0
-51 -89 0
-55 -90 0
-52 -90 0
-51 -87 0
-54 -87 0
-51 -90 0
-51 -95 0
-53 -91 0
-55 -95 0
-52 -95 0
-55 -93 0
-52 -93 0
-51 -92 0
-52 -96 0
-54 -99 0
-51 -99 0
-51 -98 0
-55 -100 0
-52 -99 0
-54 -97 0
-53 -105 0
-52 -105 0
-55 -104 0
-55 -101 0
-52 -101 0
-55 -102 0
-52 -102 0
-51 -110 0
-53 -107 0
-51 -106 0
-52 -106 0
-55 -107 0
-54 -108 0
-54 -110 0
-53 -115 0
-51 -113 0
-53 -113 0
-55 -115 0
-53 -112 0
-51 -115 0
-51 -112 0
-52 -116 0
-52 -118 0
-51 -120 0
-55 -120 0
-51 -116 0
-52 -117 0
-53 -117 0
-51 -124 0
-53 -121 0
-52 -125 0
-55 -123 0
-54 -122 0
-55 -125 0
-55 -124 0
-51 -126 0
-55 -129 0
-51 -127 0
-55 -126 0
-53 -126 0
-52 -127 0
-52 -130 0
-53 -131 0
-51 -131 0
-51 -135 0
-55 -134 0
-53 -134 0
-54 -135 0
-55 -135 0
-51 -140 0
-53 -140 0
-55 -136 0
-52 -136 0
-53 -137 0
-52 -138 0
-54 -136 0
-51 -148 0
-55 -150 0
-53 -150 0
-54 -147 0
-55 -146 0
-53 -148 0
-54 -146 0
-55 -152 0
-55 -151 0
-52 -155 0
-55 -153 0
-53 -153 0
-51 -154 0
-54 -151 0
-52 -165 0
-54 -164 0
-52 -162 0
-53 -161 0
-54 -163 0
-53 -165 0
-54 -165 0
-53 -169 0
-53 -166 0
-54 -169 0
-55 -170 0
-54 -170 0
-51 -170 0
-55 -166 0
-52 -171 0
-53 -171 0
-55 -172 0
-55 -175 0
-53 -173 0
-51 -174 0
-51 -175 0
-57 -66 0
-57 -68 0
-60 -66 0
-58 -66 0
-58 -68 0
-59 -70 0
-56 -66 0
-59 -73 0
-56 -72 0
-58 -74 0
-60 -71 0
-58 -72 0
-56 -71 0
-60 -74 0
-58 -81 0
-58 -84 0
-60 -81 0
-56 -85 0
-60 -85 0
-58 -83 0
-60 -84 0
-57 -86 0
-60 -90 0
-56 -87 0
-59 -89 0
-56 -90 0
-59 -90 0
-58 -88 0
-59 -92 0
-60 -94 0
-59 -91 0
-58 -93 0
-56 -94 0
-56 -92 0
-58 -94 0
-58 -97 0
-59 -98 0
-58 -100 0
-59 -99 0
-56 -99 0
-56 -98 0
-58 -98 0
-59 -114 0
-58 -112 0
-60 -113 0
-60 -115 0
-57 -114 0
-57 -113 0
-56 -112 0
-60 -133 0
-57 -131 0
-59 -133 0
-58 -132 0
-56 -133 0
-59 -132 0
-60 -131 0
-60 -139 0
-58 -136 0
-56 -137 0
-60 -138 0
-59 -140 0
-60 -136 0
-58 -139 0
-60 -151 0
-57 -152 0
-56 -151 0
-60 -153 0
-59 -151 0
-56 -154 0
-58 -155 0
-58 -160 0
-60 -159 0
-60 -157 0
-59 -158 0
-58 -157 0
-57 -157 0
-60 -160 0
-59 -164 0
-56 -165 0
-58 -163 0
-58 -161 0
-60 -161 0
-58 -164 0
-60 -165 0
-58 -168 0
-58 -170 0
-57 -167 0
-56 -168 0
-59 -166 0
-60 -167 0
-57 -168 0
-63 -75 0
-61 -74 0
-61 -71 0
-64 -72 0
-62 -71 0
-63 -74 0
-61 -72 0
-65 -79 0
-64 -78 0
-62 -79 0
-63 -77 0
-64 -79 0
-64 -77 0
-65 -80 0
-63 -85 0
-61 -82 0
-64 -82 0
-63 -82 0
-62 -84 0
-65 -85 0
-62 -83 0
-64 -90 0
-65 -88 0
-65 -89 0
-61 -88 0
-64 -89 0
-63 -86 0
-61 -90 0
-64 -91 0
-63 -95 0
-62 -92 0
-63 -91 0
-65 -91 0
-63 -94 0
-65 -95 0
-65 -97 0
-62 -97 0
-64 -100 0
-63 -98 0
-65 -98 0
-62 -96 0
-61 -96 0
-61 -109 0
-61 -106 0
-61 -108 0
-65 -110 0
-62 -107 0
-63 -107 0
-64 -107 0
-65 -111 0
-62 -112 0
-62 -113 0
-64 -114 0
-63 -111 0
-65 -113 0
-61 -112 0
-61 -117 0
-63 -119 0
-63 -120 0
-62 -119 0
-62 -116 0
-61 -120 0
-61 -118 0
-61 -125 0
-63 -124 0
-65 -122 0
-64 -123 0
-64 -121 0
-65 -123 0
-65 -124 0
-64 -145 0
-62 -141 0
-65 -141 0
-65 -145 0
-64 -144 0
-61 -142 0
-61 -141 0
-63 -150 0
-65 -148 0
-64 -146 0
-62 -150 0
-62 -147 0
-61 -148 0
-65 -149 0
-64 -151 0
-63 -152 0
-63 -154 0
-65 -152 0
-65 -154 0
-65 -155 0
-63 -151 0
-63 -159 0
-64 -157 0
-63 -158 0
-63 -157 0
-62 -156 0
-61 -158 0
-65 -159 0
-61 -166 0
-61 -170 0
-62 -169 0
-63 -168 0
-65 -170 0
-63 -167 0
-64 -167 0
-61 -172 0
-62 -173 0
-65 -172 0
-61 -173 0
-63 -171 0
-63 -175 0
-65 -173 0
-66 -73 0
-70 -72 0
-66 -72 0
-68 -74 0
-67 -74 0
-67 -72 0
-70 -75 0
-70 -76 0
-70 -78 0
-68 -76 0
-67 -76 0
-70 -77 0
-69 -79 0
-69 -76 0
-68 -84 0
-66 -84 0
-66 -82 0
-67 -84 0
-69 -82 0
-70 -85 0
-70 -84 0
-66 -86 0
-68 -90 0
-66 -88 0
-70 -86 0
-66 -87 0
-68 -88 0
-70 -90 0
-69 -93 0
-69 -91 0
-68 -95 0
-68 -91 0
-70 -93 0
-69 -95 0
-70 -92 0
-69 -105 0
-67 -105 0
-68 -102 0
-66 -101 0
-70 -101 0
-68 -101 0
-70 -103 0
-68 -109 0
-69 -110 0
-69 -109 0
-70 -110 0
-70 -106 0
-68 -108 0
-66 -107 0
-69 -114 0
-70 -114 0
-68 -112 0
-69 -115 0
-67 -114 0
-70 -113 0
-67 -113 0
-67 -116 0
-70 -120 0
-66 -119 0
-69 -118 0
-67 -117 0
-68 -119 0
-69 -117 0
-67 -121 0
-68 -125 0
-68 -123 0
-67 -122 0
-66 -124 0
-67 -123 0
-69 -123 0
-70 -128 0
-66 -126 0
-68 -127 0
-70 -126 0
-69 -128 0
-66 -127 0
-68 -130 0
-67 -131 0
-66 -131 0
-67 -132 0
-66 -132 0
-70 -134 0
-70 -133 0
-68 -133 0
-68 -145 0
-69 -141 0
-68 -143 0
-70 -142 0
-66 -141 0
-69 -142 0
-67 -141 0
-70 -148 0
-69 -146 0
-70 -147 0
-66 -147 0
-68 -149 0
-66 -148 0
-69 -150 0
-66 -169 0
-69 -169 0
-68 -166 0
-69 -166 0
-70 -170 0
-70 -167 0
-66 -166 0
-74 -79 0
-72 -78 0
-74 -77 0
-73 -80 0
-71 -80 0
-73 -78 0
-71 -76 0
-75 -84 0
-74 -82 0
-75 -82 0
-74 -81 0
-74 -84 0
-71 -82 0
-75 -81 0
-72 -87 0
-75 -87 0
-73 -87 0
-72 -89 0
-74 -90 0
-73 -86 0
-73 -90 0
-74 -104 0
-74 -101 0
-74 -103 0
-72 -104 0
-71 -105 0
-73 -104 0
-73 -105 0
-74 -106 0
-72 -110 0
-73 -110 0
-72 -108 0
-75 -108 0
-73 -108 0
-75 -110 0
-72 -116 0
-74 -119 0
-74 -118 0
-73 -116 0
-75 -120 0
-75 -117 0
-72 -118 0
-72 -121 0
-71 -121 0
-72 -125 0
-74 -123 0
-73 -125 0
-73 -121 0
-74 -122 0
-75 -133 0
-74 -135 0
-75 -135 0
-71 -132 0
-74 -134 0
-75 -134 0
-73 -131 0
-72 -137 0
-74 -139 0
-75 -139 0
-72 -138 0
-71 -137 0
-73 -137 0
-74 -138 0
-73 -145 0
-75 -142 0
-75 -144 0
-73 -143 0
-72 -143 0
-74 -142 0
-72 -145 0
-75 -150 0
-73 -147 0
-71 -149 0
-72 -148 0
-75 -148 0
-73 -150 0
-75 -149 0
-75 -158 0
-71 -156 0
-71 -157 0
-74 -158 0
-72 -157 0
-73 -158 0
-75 -157 0
-71 -162 0
-75 -163 0
-73 -164 0
-73 -162 0
-74 -161 0
-71 -164 0
-74 -164 0
-75 -166 0
-71 -170 0
-72 -166 0
-73 -170 0
-72 -170 0
-73 -167 0
-72 -167 0
-72 -175 0
-73 -171 0
-75 -171 0
-74 -175 0
-74 -173 0
-73 -173 0
-72 -173 0
-76 -84 0
-76 -81 0
-80 -83 0
-77 -82 0
-80 -85 0
-79 -85 0
-76 -83 0
-76 -94 0
-80 -95 0
-80 -92 0
-77 -92 0
-76 -95 0
-77 -95 0
-78 -94 0
-80 -103 0
-76 -101 0
-80 -104 0
-76 -103 0
-77 -104 0
-77 -105 0
-79 -103 0
-77 -106 0
-78 -110 0
-77 -107 0
-77 -109 0
-79 -106 0
-77 -108 0
-78 -107 0
-77 -115 0
-76 -113 0
-79 -112 0
-78 -114 0
-79 -111 0
-77 -111 0
-76 -112 0
-76 -117 0
-80 -117 0
-78 -116 0
-77 -120 0
-79 -120 0
-78 -120 0
-80 -119 0
-79 -122 0
-76 -123 0
-79 -121 0
-80 -123 0
-76 -121 0
-78 -123 0
-79 -123 0
-79 -131 0
-79 -133 0
-78 -135 0
-76 -132 0
-79 -134 0
-80 -134 0
-78 -133 0
-78 -143 0
-76 -143 0
-78 -145 0
-80 -141 0
-79 -143 0
-76 -142 0
-76 -144 0
-77 -148 0
-76 -147 0
-78 -148 0
-80 -150 0
-76 -146 0
-77 -149 0
-80 -147 0
-79 -152 0
-77 -154 0
-79 -151 0
-80 -152 0
-76 -155 0
-77 -152 0
-76 -153 0
-76 -160 0
-77 -159 0
-76 -158 0
-79 -160 0
-79 -159 0
-78 -157 0
-79 -157 0
-76 -161 0
-77 -161 0
-79 -161 0
-80 -161 0
-78 -163 0
-77 -162 0
-78 -165 0
-79 -168 0
-76 -170 0
-80 -167 0
-79 -169 0
-80 -168 0
-80 -170 0
-78 -168 0
-77 -174 0
-78 -175 0
-80 -173 0
-80 -174 0
-76 -172 0
-76 -174 0
-80 -175 0
-82 -89 0
-82 -87 0
-83 -87 0
-84 -89 0
-84 -88 0
-81 -88 0
-81 -86 0
-85 -97 0
-82 -97 0
-84 -100 0
-83 -100 0
-81 -100 0
-84 -96 0
-83 -97 0
-82 -103 0
-83 -104 0
-83 -101 0
-84 -104 0
-83 -102 0
-85 -101 0
-82 -102 0
-82 -107 0
-81 -108 0
-85 -108 0
-82 -108 0
-83 -109 0
-81 -107 0
-82 -110 0
-82 -118 0
-83 -119 0
-85 -116 0
-85 -118 0
-83 -117 0
-83 -120 0
-83 -118 0
-83 -129 0
-84 -126 0
-85 -128 0
-84 -130 0
-84 -128 0
-85 -129 0
-81 -130 0
-85 -133 0
-84 -131 0
-85 -132 0
-83 -133 0
-82 -134 0
-82 -132 0
-84 -132 0
-83 -141 0
-83 -142 0
-85 -143 0
-84 -141 0
-84 -144 0
-81 -144 0
-84 -143 0
-81 -146 0
-81 -148 0
-81 -147 0
-84 -147 0
-81 -149 0
-85 -148 0
-82 -150 0
-83 -151 0
-84 -153 0
-84 -154 0
-83 -154 0
-83 -155 0
-81 -151 0
-85 -152 0
-85 -157 0
-83 -157 0
-82 -158 0
-81 -156 0
-82 -156 0
-82 -157 0
-83 -156 0
-85 -163 0
-85 -162 0
-84 -165 0
-82 -164 0
-82 -163 0
-83 -165 0
-82 -165 0
-82 -173 0
-82 -172 0
-82 -171 0
-83 -171 0
-81 -171 0
-83 -174 0
-83 -173 0
-87 -100 0
-89 -96 0
-87 -98 0
-88 -97 0
-88 -98 0
-88 -99 0
-89 -97 0
-87 -103 0
-89 -102 0
-87 -105 0
-88 -101 0
-86 -101 0
-88 -105 0
-90 -103 0
-90 -106 0
-88 -107 0
-86 -106 0
-89 -106 0
-87 -108 0
-90 -108 0
-88 -108 0
-90 -114 0
-86 -113 0
-86 -112 0
-89 -111 0
-87 -113 0
-88 -111 0
-89 -113 0
-87 -118 0
-89 -118 0
-86 -119 0
-86 -120 0
-86 -116 0
-89 -116 0
-90 -118 0
-90 -123 0
-86 -125 0
-86 -121 0
-87 -122 0
-89 -123 0
-86 -123 0
-87 -121 0
-86 -128 0
-90 -130 0
-89 -126 0
-87 -130 0
-89 -127 0
-89 -130 0
-87 -128 0
-89 -134 0
-86 -131 0
-88 -131 0
-86 -133 0
-86 -135 0
-90 -132 0
-90 -133 0
-89 -139 0
-89 -136 0
-86 -140 0
-89 -137 0
-90 -138 0
-86 -138 0
-88 -138 0
-89 -145 0
-87 -144 0
-90 -142 0
-87 -142 0
-86 -145 0
-89 -143 0
-87 -143 0
-88 -151 0
-88 -154 0
-88 -152 0
-89 -151 0
-86 -151 0
-86 -152 0
-86 -153 0
-88 -161 0
-89 -163 0
-87 -164 0
-89 -162 0
-90 -161 0
-86 -164 0
-90 -164 0
-90 -170 0
-89 -169 0
-90 -167 0
-90 -168 0
-87 -167 0
-90 -166 0
-90 -169 0
-86 -174 0
-86 -171 0
-90 -171 0
-90 -174 0
-86 -173 0
-86 -175 0
-88 -175 0
-91 -99 0
-94 -99 0
-94 -98 0
-92 -99 0
-92 -97 0
-93 -96 0
-93 -97 0
-93 -108 0
-93 -107 0
-95 -106 0
-94 -106 0
-94 -109 0
-91 -109 0
-92 -107 0
-94 -111 0
-94 -114 0
-93 -111 0
-92 -113 0
-92 -114 0
-95 -112 0
-92 -115 0
-95 -122 0
-95 -124 0
-91 -123 0
-92 -124 0
-92 -122 0
-94 -124 0
-91 -124 0
-93 -128 0
-92 -130 0
-93 -126 0
-94 -127 0
-92 -128 0
-94 -129 0
-91 -127 0
-95 -131 0
-94 -132 0
-91 -135 0
-92 -135 0
-92 -132 0
-95 -134 0
-95 -132 0
-94 -139 0
-93 -140 0
-93 -138 0
-94 -140 0
-91 -140 0
-91 -136 0
-94 -137 0
-94 -145 0
-95 -142 0
-92 -144 0
-94 -144 0
-92 -143 0
-93 -142 0
-93 -145 0
-91 -153 0
-94 -154 0
-95 -155 0
-93 -151 0
-95 -152 0
-94 -152 0
-93 -153 0
-91 -156 0
-95 -156 0
-93 -159 0
-95 -157 0
-93 -158 0
-94 -158 0
-92 -159 0
-93 -164 0
-95 -164 0
-92 -164 0
-91 -165 0
-95 -161 0
-91 -163 0
-93 -163 0
-92 -168 0
-91 -167 0
-94 -166 0
-93 -169 0
-95 -168 0
-92 -166 0
-91 -166 0
-95 -173 0
-92 -175 0
-93 -171 0
-92 -172 0
-92 -174 0
-94 -171 0
-95 -174 0
-97 -107 0
-96 -108 0
-98 -110 0
-100 -108 0
-98 -108 0
-96 -109 0
-98 -107 0
-100 -111 0
-96 -111 0
-98 -113 0
-97 -111 0
-99 -113 0
-98 -114 0
-100 -114 0
-100 -125 0
-97 -124 0
-99 -125 0
-97 -123 0
-97 -125 0
-97 -122 0
-98 -123 0
-98 -128 0
-97 -128 0
-98 -130 0
-100 -129 0
-100 -127 0
-98 -126 0
-97 -126 0
-96 -139 0
-97 -137 0
-98 -138 0
-100 -140 0
-98 -136 0
-100 -138 0
-96 -137 0
-96 -146 0
-100 -147 0
-99 -150 0
-98 -149 0
-98 -147 0
-100 -149 0
-100 -148 0
-96 -157 0
-98 -159 0
-100 -158 0
-98 -158 0
-99 -160 0
-97 -157 0
-100 -159 0
-104 -108 0
-105 -110 0
-105 -109 0
-105 -108 0
-101 -109 0
-103 -109 0
-103 -106 0
-103 -122 0
-101 -123 0
-103 -124 0
-101 -125 0
-105 -124 0
-101 -122 0
-105 -125 0
-103 -126 0
-104 -128 0
-103 -127 0
-102 -128 0
-101 -129 0
-105 -126 0
-104 -127 0
-102 -133 0
-101 -135 0
-104 -132 0
-105 -131 0
-103 -133 0
-105 -133 0
-104 -131 0
-101 -138 0
-105 -136 0
-104 -137 0
-102 -137 0
-102 -139 0
-104 -140 0
-101 -137 0
-101 -145 0
-104 -141 0
-101 -141 0
-105 -143 0
-102 -141 0
-101 -144 0
-105 -141 0
-104 -150 0
-105 -146 0
-103 -149 0
-104 -148 0
-105 -148 0
-103 -150 0
-101 -146 0
-103 -152 0
-105 -155 0
-103 -153 0
-102 -151 0
-102 -154 0
-101 -151 0
-104 -153 0
-104 -163 0
-105 -161 0
-101 -163 0
-101 -161 0
-103 -163 0
-104 -161 0
-105 -162 0
-103 -166 0
-105 -167 0
-104 -170 0
-101 -170 0
-105 -170 0
-102 -166 0
-104 -166 0
-104 -173 0
-104 -171 0
-101 -174 0
-102 -171 0
-104 -174 0
-105 -174 0
-105 -172 0
-110 -115 0
-106 -114 0
-109 -114 0
-109 -113 0
-106 -113 0
-106 -111 0
-108 -111 0
-108 -118 0
-108 -120 0
-109 -116 0
-108 -116 0
-108 -117 0
-108 -119 0
-110 -119 0
-106 -123 0
-107 -125 0
-107 -123 0
-110 -121 0
-110 -123 0
-110 -125 0
-106 -125 0
-110 -132 0
-109 -132 0
-109 -135 0
-108 -135 0
-107 -133 0
-110 -133 0
-108 -132 0
-107 -140 0
-108 -140 0
-110 -140 0
-107 -139 0
-110 -136 0
-108 -139 0
-106 -137 0
-110 -144 0
-107 -142 0
-107 -144 0
-108 -141 0
-106 -144 0
-110 -141 0
-106 -141 0
-110 -147 0
-109 -150 0
-109 -148 0
-109 -149 0
-107 -146 0
-106 -149 0
-110 -148 0
-107 -151 0
-109 -154 0
-109 -152 0
-106 -151 0
-106 -155 0
-106 -152 0
-109 -155 0
-107 -157 0
-107 -156 0
-109 -157 0
-107 -160 0
-107 -158 0
-107 -159 0
-106 -158 0
-110 -164 0
-106 -164 0
-109 -165 0
-110 -161 0
-108 -162 0
-110 -165 0
-110 -162 0
-108 -171 0
-106 -173 0
-106 -171 0
-110 -173 0
-109 -174 0
-110 -171 0
-109 -172 0
-112 -120 0
-115 -118 0
-115 -120 0
-114 -117 0
-114 -120 0
-112 -118 0
-114 -119 0
-115 -122 0
-112 -121 0
-112 -124 0
-113 -124 0
-111 -122 0
-111 -125 0
-111 -121 0
-112 -129 0
-114 -127 0
-115 -129 0
-115 -127 0
-111 -128 0
-112 -126 0
-115 -130 0
-112 -143 0
-112 -142 0
-114 -141 0
-114 -144 0
-113 -141 0
-113 -144 0
-115 -145 0
-115 -146 0
-114 -146 0
-113 -146 0
-111 -148 0
-111 -149 0
-113 -149 0
-112 -146 0
-111 -153 0
-115 -153 0
-112 -153 0
-113 -153 0
-112 -152 0
-115 -152 0
-114 -151 0
-111 -158 0
-112 -157 0
-113 -156 0
-115 -157 0
-115 -158 0
-113 -160 0
-113 -159 0
-113 -169 0
-115 -168 0
-112 -166 0
-114 -166 0
-112 -168 0
-112 -167 0
-111 -167 0
-115 -174 0
-114 -174 0
-112 -174 0
-112 -175 0
-115 -175 0
-114 -171 0
-113 -172 0
-117 -121 0
-119 -121 0
-119 -122 0
-118 -122 0
-116 -125 0
-118 -121 0
-119 -125 0
-119 -126 0
-117 -126 0
-120 -130 0
-119 -130 0
-116 -129 0
-116 -130 0
-116 -128 0
-117 -133 0
-116 -131 0
-117 -135 0
-120 -132 0
-120 -134 0
-117 -134 0
-119 -132 0
-116 -138 0
-118 -138 0
-116 -137 0
-117 -137 0
-118 -136 0
-119 -138 0
-120 -136 0
-118 -143 0
-119 -143 0
-116 -145 0
-117 -143 0
-116 -141 0
-117 -142 0
-118 -142 0
-118 -149 0
-120 -148 0
-120 -147 0
-116 -148 0
-120 -149 0
-117 -150 0
-119 -146 0
-118 -151 0
-120 -153 0
-116 -153 0
-118 -153 0
-119 -152 0
-119 -155 0
-116 -155 0
-117 -156 0
-119 -159 0
-117 -158 0
-120 -159 0
-119 -157 0
-119 -160 0
-120 -158 0
-118 -167 0
-116 -167 0
-117 -166 0
-117 -168 0
-119 -168 0
-117 -167 0
-116 -166 0
-122 -142 0
-125 -145 0
-124 -145 0
-125 -144 0
-122 -145 0
-121 -145 0
-123 -143 0
-122 -146 0
-125 -150 0
-124 -147 0
-122 -150 0
-123 -148 0
-122 -147 0
-125 -148 0
-125 -160 0
-125 -156 0
-122 -159 0
-123 -157 0
-122 -156 0
-124 -159 0
-125 -157 0
-123 -175 0
-122 -175 0
-122 -171 0
-125 -174 0
-124 -171 0
-122 -173 0
-124 -174 0
-126 -133 0
-128 -135 0
-130 -131 0
-128 -131 0
-130 -135 0
-126 -132 0
-128 -132 0
-128 -138 0
-129 -139 0
-129 -138 0
-128 -139 0
-127 -137 0
-126 -136 0
-129 -140 0
-127 -144 0
-130 -143 0
-130 -145 0
-126 -141 0
-129 -142 0
-129 -141 0
-127 -143 0
-126 -152 0
-129 -154 0
-127 -151 0
-128 -152 0
-130 -151 0
-130 -152 0
-130 -155 0
-130 -157 0
-128 -157 0
-128 -158 0
-128 -160 0
-129 -160 0
-126 -158 0
-127 -157 0
-126 -162 0
-127 -161 0
-127 -165 0
-128 -161 0
-127 -162 0
-128 -162 0
-128 -165 0
-129 -169 0
-130 -169 0
-130 -168 0
-129 -168 0
-126 -167 0
-128 -169 0
-129 -166 0
-131 -140 0
-131 -139 0
-133 -137 0
-133 -140 0
-131 -137 0
-133 -136 0
-134 -138 0
-132 -143 0
-135 -145 0
-131 -142 0
-131 -145 0
-133 -144 0
-135 -141 0
-132 -142 0
-131 -149 0
-134 -149 0
-132 -148 0
-131 -150 0
-135 -147 0
-135 -150 0
-135 -149 0
-135 -153 0
-134 -153 0
-133 -155 0
-132 -153 0
-133 -153 0
-134 -151 0
-135 -154 0
-135 -162 0
-134 -163 0
-134 -162 0
-131 -165 0
-135 -164 0
-133 -165 0
-133 -161 0
-134 -175 0
-132 -175 0
-131 -174 0
-131 -175 0
-132 -171 0
-133 -175 0
-135 -171 0
-136 -144 0
-139 -144 0
-136 -143 0
-137 -144 0
-138 -144 0
-136 -142 0
-136 -145 0
-137 -148 0
-140 -150 0
-138 -146 0
-140 -149 0
-137 -150 0
-138 -150 0
-136 -147 0
-136 -159 0
-140 -160 0
-136 -160 0
-138 -156 0
-137 -159 0
-137 -156 0
-140 -159 0
-140 -161 0
-139 -165 0
-138 -164 0
-137 -161 0
-136 -163 0
-138 -161 0
-138 -163 0
-140 -169 0
-137 -169 0
-139 -168 0
-136 -168 0
-139 -167 0
-136 -166 0
-136 -170 0
-141 -151 0
-143 -151 0
-142 -151 0
-141 -152 0
-144 -155 0
-142 -155 0
-141 -154 0
-145 -157 0
-142 -156 0
-145 -156 0
-145 -158 0
-141 -158 0
-142 -160 0
-142 -159 0
-142 -162 0
-144 -164 0
-143 -163 0
-141 -164 0
-145 -161 0
-145 -165 0
-144 -165 0
-142 -171 0
-144 -175 0
-144 -172 0
-145 -174 0
-143 -172 0
-143 -174 0
-141 -173 0
-150 -153 0
-149 -151 0
-146 -154 0
-149 -155 0
-148 -155 0
-147 -154 0
-147 -153 0
-146 -158 0
-146 -159 0
-147 -159 0
-148 -156 0
-146 -157 0
-149 -159 0
-146 -156 0
-147 -166 0
-146 -168 0
-147 -170 0
-148 -169 0
-149 -166 0
-148 -166 0
-149 -169 0
-149 -174 0
-146 -175 0
-146 -172 0
-148 -173 0
-149 -175 0
-148 -172 0
-147 -173 0
-155 -159 0
-152 -158 0
-153 -159 0
-155 -157 0
-155 -160 0
-151 -159 0
-152 -160 0
-151 -167 0
-154 -170 0
-154 -167 0
-151 -166 0
-151 -169 0
-155 -170 0
-152 -167 0
-158 -174 0
-160 -173 0
-156 -175 0
-156 -173 0
-157 -171 0
-157 -175 0
-160 -172 0
-165 -174 0
-162 -173 0
-165 -171 0
-164 -173 0
-161 -173 0
-164 -171 0
-165 -175 0
-166 -171 0
-169 -171 0
-168 -175 0
-170 -172 0
-169 -174 0
-168 -174 0
-167 -175 0
